; --full-saturate-quant --inst-when=full-last-call --inst-no-entail --term-db-mode=relevant --random-seed=1 --lang=smt2 --tlimit 364
;(set-option :produce-unsat-cores true)
(set-logic ALL_SUPPORTED)
(declare-sort A$ 0)
(declare-sort A_llist_bool_fun$ 0)
(declare-codatatypes () ((A_llist$ (lNil$) (lCons$ (lhd$ A$) (ltl$ A_llist$)))))
(declare-fun xs$ () A_llist$)
(declare-fun ys$ () A_llist$)
(declare-fun lnull$ (A_llist$) Bool)
(declare-fun fun_app$ (A_llist_bool_fun$ A_llist$) Bool)
(declare-fun lappend$ (A_llist$ A_llist$) A_llist$)
(declare-fun lprefix$ (A_llist$) A_llist_bool_fun$)
(assert (! (not (not (lnull$ ys$))) :named a0))
(assert (! (fun_app$ (lprefix$ xs$) ys$) :named a1))
(assert (! (not (lnull$ xs$)) :named a2))
(assert (! (forall ((?v0 A_llist$)) (fun_app$ (lprefix$ ?v0) ?v0)) :named a3))
(assert (! (forall ((?v0 A_llist$) (?v1 A_llist$)) (=> (and (=> (and (lnull$ ?v0) (lnull$ ?v1)) false) (=> (or (not (lnull$ ?v0)) (not (lnull$ ?v1))) false)) false)) :named a4))
(assert (! (forall ((?v0 A_llist$)) (=> (and (=> (lnull$ ?v0) false) (=> (not (lnull$ ?v0)) false)) false)) :named a5))
(assert (! (forall ((?v0 A_llist$) (?v1 A_llist$)) (=> (and (fun_app$ (lprefix$ ?v0) ?v1) (lnull$ ?v1)) (lnull$ ?v0))) :named a6))
(assert (! (forall ((?v0 A_llist$) (?v1 A_llist$)) (! (=> (lnull$ ?v0) (= (fun_app$ (lprefix$ ?v1) ?v0) (lnull$ ?v1))) :pattern ((fun_app$ (lprefix$ ?v1) ?v0)))) :named a7))
(assert (! (forall ((?v0 A_llist$) (?v1 A_llist$)) (=> (lnull$ ?v0) (fun_app$ (lprefix$ ?v0) ?v1))) :named a8))
(assert (! (forall ((?v0 A_llist$)) (! (= (fun_app$ (lprefix$ ?v0) lNil$) (lnull$ ?v0)) :pattern ((lprefix$ ?v0)))) :named a9))
(assert (! (forall ((?v0 A_llist$) (?v1 A_llist$)) (=> (and (fun_app$ (lprefix$ ?v0) ?v1) (not (lnull$ ?v0))) (= (lhd$ ?v0) (lhd$ ?v1)))) :named a10))
(assert (! (forall ((?v0 A_llist$)) (! (= (fun_app$ (lprefix$ lNil$) ?v0) true) :pattern ((fun_app$ (lprefix$ lNil$) ?v0)))) :named a11))
(assert (! (forall ((?v0 A_llist$) (?v1 A_llist$)) (= (not (lnull$ (lappend$ ?v0 ?v1))) (or (not (lnull$ ?v0)) (not (lnull$ ?v1))))) :named a12))
(assert (! (forall ((?v0 A_llist$) (?v1 A_llist$)) (= (lnull$ (lappend$ ?v0 ?v1)) (and (lnull$ ?v0) (lnull$ ?v1)))) :named a13))
(check-sat)
;(get-unsat-core)
